proyfinal/src/viki/013/andrea/andrea-localstore/experimentInOfficeAgust.take6/worker_5/fd2b981e-2204-4146-b2d1-6498edd6edf2.als.cnf.out
Reading from standard input... Use '--help' for help.
============================[ Problem Statistics ]=============================
|                                                                             |
|  Number of variables:         87638                                         |
|  Number of clauses:          161767                                         |
|  Parse time:                   0.03 s                                       |
|                                                                             |
============================[ Search Statistics ]==============================
| Conflicts |          ORIGINAL         |          LEARNT          | Progress |
|           |    Vars  Clauses Literals |    Limit  Clauses Lit/Cl |          |
===============================================================================
|       100 |   63685   109895   274777 |    40294      100     11 | 27.332 % |
|       250 |   63640   109730   274341 |    44324      230     16 | 27.383 % |
|       475 |   63639   109686   274251 |    48756      453     39 | 27.384 % |
|       812 |   63639   109686   274251 |    53632      790     54 | 27.384 % |
|      1318 |   63639   109686   274251 |    58995     1296     65 | 27.384 % |
|      2077 |   63621   109612   274080 |    64895     2054     64 | 27.405 % |
|      3216 |   49626    69698   175985 |    71384     2910     64 | 43.374 % |
|      4924 |   49351    68555   173237 |    78523     4608     56 | 43.688 % |
|      7486 |   48527    64602   163751 |    86375     7142     55 | 44.628 % |
===============================================================================
restarts              : 46
conflicts             : 10566          (7166 /sec)
decisions             : 32712          (0.00 % random) (22186 /sec)
propagations          : 16310397       (11062081 /sec)
conflict literals     : 536063         (45.07 % deleted)
Memory used           : 30.76 MB
CPU time              : 1.47444 s

UNSATISFIABLE
